
Gurobi 11.0.1 (win64) logging started Tue May 14 18:25:37 2024

Set parameter LogFile to value "output/solver_log26.txt"
Gurobi Optimizer version 11.0.1 build v11.0.1rc0 (win64 - Windows 11.0 (22631.2))

CPU model: 11th Gen Intel(R) Core(TM) i7-1165G7 @ 2.80GHz, instruction set [SSE2|AVX|AVX2|AVX512]
Thread count: 4 physical cores, 8 logical processors, using up to 8 threads

Optimize a model with 1054 rows, 197 columns and 19783 nonzeros
Model fingerprint: 0xc4d804de
Variable types: 88 continuous, 109 integer (109 binary)
Coefficient statistics:
  Matrix range     [4e-01, 1e+05]
  Objective range  [1e+00, 1e+02]
  Bounds range     [1e+00, 1e+00]
  RHS range        [1e-02, 1e+05]

User MIP start produced solution with objective 38085.5 (0.00s)
User MIP start produced solution with objective 39298.5 (0.01s)
User MIP start produced solution with objective 39298.5 (0.01s)
Loaded user MIP start with objective 39298.5

Presolve removed 77 rows and 79 columns
Presolve time: 0.02s
Presolved: 977 rows, 118 columns, 19258 nonzeros
Variable types: 81 continuous, 37 integer (37 binary)

Root relaxation: objective 4.016985e+04, 261 iterations, 0.01 seconds (0.03 work units)

    Nodes    |    Current Node    |     Objective Bounds      |     Work
 Expl Unexpl |  Obj  Depth IntInf | Incumbent    BestBd   Gap | It/Node Time

     0     0 40169.8539    0    4 39298.4565 40169.8539  2.22%     -    0s
     0     0 39401.8544    0    2 39298.4565 39401.8544  0.26%     -    0s
     0     0          -    0      39298.4565 39301.6524  0.01%     -    0s

Cutting planes:
  Cover: 1
  MIR: 1
  Relax-and-lift: 1

Explored 1 nodes (514 simplex iterations) in 0.14 seconds (0.22 work units)
Thread count was 8 (of 8 available processors)

Solution count 3: 39298.5 39298.5 38085.5 

Optimal solution found (tolerance 1.00e-04)
Best objective 3.929845645695e+04, best bound 3.930165242224e+04, gap 0.0081%
